# Define the interatomic potential
pair_style ${pstyle}
pair_coeff * * ${yace_path} Fe
