# bulk Fe lattice

variable	x index 1
variable	y index 1
variable	z index 1

variable	xx equal 20*$x
variable	yy equal 20*$y
variable	zz equal 20*$z

units		metal
atom_style	atomic

lattice		bcc 2.830
region		box block 0 $xx 0 $yy 0 $zz
create_box	1 box
create_atoms	1 box

mass            1 55.845

pair_style pace
pair_coeff * * ../potential.in Fe

velocity	all create 300.0 376847 loop geom

neighbor	1.0 bin
neigh_modify    every 1 delay 5 check yes

fix		1 all nve

timestep	0.001
thermo		50

run		${{steps}}